10
1 0 19
2 0 18
2 1 42
3 0 12
3 1 50
3 2 63
4 0 29
4 1 70
4 2 52
4 3 37
5 0 69
5 1 50
5 2 67
5 3 64
5 4 80
6 0 27
6 1 50
6 2 24
6 3 20
6 4 64
6 5 73
7 0 3
7 1 19
7 2 17
7 3 38
7 4 44
7 5 42
7 6 73
8 0 15
8 1 28
8 2 17
8 3 13
8 4 67
8 5 36
8 6 28
8 7 76
9 0 41
9 1 48
9 2 46
9 3 16
9 4 16
9 5 7
9 6 17
9 7 80
9 8 78
